NAME: random-44-29725
TYPE: TSP
COMMENT: size=44 seed=29725
DIMENSION: 90
EDGE_WEIGHT_TYPE: EUC_2D
NODE_COORD_SECTION
+0 75 402
-0 75 402
+1 358 524
-1 894 737
+2 951 424
-2 847 592
+3 800 981
-3 492 660
+4 72 9
-4 141 758
+5 52 667
-5 996 746
+6 656 111
-6 524 811
+7 445 101
-7 152 418
+8 953 305
-8 890 793
+9 940 877
-9 449 452
+10 154 918
-10 718 329
+11 823 605
-11 875 816
+12 68 941
-12 477 525
+13 951 763
-13 987 247
+14 633 846
-14 428 75
+15 620 438
-15 163 899
+16 156 524
-16 908 841
+17 16 201
-17 749 779
+18 683 964
-18 463 315
+19 85 864
-19 633 607
+20 293 428
-20 288 17
+21 49 64
-21 177 286
+22 899 486
-22 943 240
+23 974 171
-23 410 888
+24 997 914
-24 315 891
+25 988 849
-25 36 200
+26 182 726
-26 728 471
+27 908 801
-27 19 901
+28 330 256
-28 644 287
+29 347 647
-29 932 928
+30 12 11
-30 67 642
+31 69 747
-31 859 493
+32 431 64
-32 795 471
+33 654 9
-33 279 550
+34 337 105
-34 737 527
+35 370 322
-35 493 584
+36 84 700
-36 895 498
+37 257 263
-37 629 554
+38 213 36
-38 767 540
+39 923 374
-39 859 813
+40 726 683
-40 341 723
+41 129 256
-41 481 913
+42 242 338
-42 197 375
+43 42 863
-43 436 977
+44 16 923
-44 162 77
PRECEDENCE_SECTION
+0 -0
+1 -1
+2 -2
+3 -3
+4 -4
+5 -5
+6 -6
+7 -7
+8 -8
+9 -9
+10 -10
+11 -11
+12 -12
+13 -13
+14 -14
+15 -15
+16 -16
+17 -17
+18 -18
+19 -19
+20 -20
+21 -21
+22 -22
+23 -23
+24 -24
+25 -25
+26 -26
+27 -27
+28 -28
+29 -29
+30 -30
+31 -31
+32 -32
+33 -33
+34 -34
+35 -35
+36 -36
+37 -37
+38 -38
+39 -39
+40 -40
+41 -41
+42 -42
+43 -43
+44 -44
EOF
